% --------------------------------------------------------------------------------
% Surface-based TSP with MiniZinc
% Copyright (c) 2026 Yılmaz Arslanoğlu
%
% This file is licensed under the MIT License.
% You may obtain a copy of the License at
% https://opensource.org/licenses/MIT
%
% See the LICENSE file in the project root for the full license text.
% --------------------------------------------------------------------------------

N = 48;
P = 130;
T = 83;
E = 119;

u_dual_edges = [1, 1, 2, 3, 3, 4, 4, 4, 5, 6, 6, 7, 7, 8, 8, 9, 10, 11, 12, 12, 13, 13, 13, 14, 14, 14, 15, 15, 15, 16, 16, 17, 18, 20, 20, 21, 21, 21, 23, 25, 25, 26, 26, 27, 27, 28, 28, 29, 30, 31, 31, 32, 32, 33, 34, 34, 35, 36, 36, 37, 37, 38, 39, 39, 40, 41, 41, 42, 42, 43, 43, 44, 44, 45, 46, 46, 47, 48, 48, 49, 50, 50, 50, 51, 51, 52, 53, 55, 55, 56, 57, 59, 59, 60, 61, 62, 64, 64, 65, 66, 68, 68, 69, 70, 71, 71, 72, 73, 74, 74, 75, 76, 77, 78, 79, 79, 80, 81, 82];
v_dual_edges = [2, 6, 8, 5, 23, 5, 34, 12, 7, 9, 18, 28, 11, 10, 9, 20, 24, 63, 29, 39, 30, 25, 32, 77, 22, 19, 19, 17, 78, 17, 18, 37, 19, 24, 22, 22, 35, 23, 24, 40, 26, 27, 33, 68, 46, 61, 29, 30, 43, 41, 45, 57, 33, 47, 35, 74, 76, 51, 49, 38, 80, 52, 40, 71, 70, 56, 42, 58, 64, 60, 44, 45, 55, 59, 47, 48, 65, 49, 53, 67, 81, 54, 69, 53, 52, 54, 54, 56, 57, 58, 58, 60, 62, 61, 63, 63, 65, 66, 67, 67, 70, 69, 73, 72, 72, 75, 73, 82, 76, 75, 83, 77, 78, 79, 83, 80, 81, 82, 83];

subtree_node_indices = [36, 48, 49, 51, 53, 1, 18, 6, 16, 37, 38, 80, 81, 50, 52, 54, 1, 2, 77, 78, 14, 15, 19, 59, 60, 61, 62, 63, 41, 44, 45, 55, 56, 31, 49, 66, 67, 36, 65, 67, 46, 47, 48, 49, 8, 9, 10, 20, 24, 68, 69, 70, 72, 73, 68, 70, 40, 25, 26, 27, 71, 72, 73, 75, 82, 83, 79, 80, 81, 82, 83, 33, 46, 47, 26, 27, 52, 51, 36, 38, 3, 11, 5, 7, 57, 58, 55, 56, 11, 62, 63, 39, 40, 12, 13, 25, 29, 30, 34, 4, 39, 71, 74, 75, 12, 51, 52, 53, 54, 69, 73, 81, 50, 82, 20, 21, 22, 23, 24, 74, 75, 76, 77, 78, 79, 83, 1, 2, 6, 8, 9, 7, 11, 28, 61, 63, 43, 44, 45, 59, 60, 15, 16, 17, 18, 19, 28, 43, 61, 60, 29, 30, 66, 41, 42, 31, 64, 34, 3, 4, 5, 35, 21, 23, 33, 13, 25, 26, 32, 37, 78, 79, 15, 17, 80, 2, 10, 8, 43, 44, 13, 55, 57, 30, 32, 59, 45, 62, 31, 65, 66, 67, 64, 74, 34, 35, 76, 68, 69, 46, 48, 50, 53, 54, 27, 17, 37, 38, 16, 6, 9, 14, 18, 19, 20, 22, 4, 5, 7, 12, 28, 29, 41, 42, 58, 56, 10, 3, 23, 24, 33, 65, 42, 47, 57, 58, 64, 32, 70, 71, 72, 39, 40, 35, 76, 77, 14, 21, 22];
subtree_node_indices_start = [1, 6, 10, 17, 19, 24, 29, 35, 39, 45, 50, 55, 61, 67, 72, 77, 81, 85, 89, 92, 99, 106, 110, 115, 120, 127, 132, 137, 142, 147, 153, 158, 165, 170, 176, 179, 186, 190, 194, 198, 206, 210, 217, 223, 227, 231, 239, 244];
subtree_node_indices_length = [5, 4, 7, 2, 5, 5, 6, 4, 6, 5, 5, 6, 6, 5, 5, 4, 4, 4, 3, 7, 7, 4, 5, 5, 7, 5, 5, 5, 5, 6, 5, 7, 5, 6, 3, 7, 4, 4, 4, 8, 4, 7, 6, 4, 4, 8, 5, 6];

subtree_edge_indices = [58, 59, 78, 79, 84, 2, 11, 31, 60, 61, 62, 81, 82, 86, 117, 1, 24, 26, 27, 29, 113, 92, 93, 94, 95, 96, 50, 51, 66, 72, 73, 88, 59, 80, 100, 75, 76, 77, 78, 80, 99, 14, 15, 16, 17, 34, 101, 102, 103, 104, 107, 40, 41, 42, 44, 65, 101, 105, 106, 107, 108, 111, 119, 115, 116, 117, 118, 119, 42, 43, 45, 54, 75, 58, 62, 85, 4, 9, 13, 88, 89, 90, 91, 18, 96, 19, 20, 21, 22, 40, 48, 63, 7, 8, 20, 56, 64, 106, 110, 84, 85, 86, 87, 81, 83, 103, 108, 118, 34, 35, 36, 38, 39, 109, 110, 111, 112, 113, 114, 115, 1, 2, 3, 10, 15, 12, 13, 18, 46, 95, 70, 71, 72, 74, 92, 27, 28, 30, 31, 33, 46, 47, 48, 49, 70, 94, 50, 67, 69, 98, 4, 5, 6, 7, 37, 38, 55, 22, 23, 41, 43, 53, 28, 29, 32, 61, 114, 116, 3, 14, 21, 23, 49, 52, 71, 73, 89, 51, 74, 93, 97, 98, 99, 100, 55, 56, 57, 109, 44, 45, 76, 79, 82, 83, 87, 102, 30, 32, 60, 10, 11, 16, 25, 26, 33, 35, 6, 8, 9, 12, 19, 47, 66, 67, 68, 90, 5, 17, 39, 52, 53, 54, 68, 69, 77, 91, 97, 63, 64, 65, 104, 105, 24, 25, 36, 37, 57, 112];
subtree_edge_indices_start = [1, 6, 9, 16, 17, 22, 27, 33, 36, 42, 47, 52, 58, 64, 69, 74, 77, 80, 84, 86, 93, 100, 104, 109, 114, 121, 126, 131, 136, 141, 147, 151, 158, 163, 169, 171, 178, 181, 185, 189, 197, 200, 207, 213, 217, 220, 228, 233];
subtree_edges_length = [5, 3, 7, 1, 5, 5, 6, 3, 6, 5, 5, 6, 6, 5, 5, 3, 3, 4, 2, 7, 7, 4, 5, 5, 7, 5, 5, 5, 5, 6, 4, 7, 5, 6, 2, 7, 3, 4, 4, 8, 3, 7, 6, 4, 3, 8, 5, 6];

u_of_subtree_edges = [1, 1, 2, 2, 4, 1, 2, 2, 1, 1, 2, 4, 5, 6, 3, 1, 1, 3, 4, 2, 1, 1, 1, 2, 3, 4, 1, 3, 1, 2, 2, 4, 1, 1, 2, 3, 3, 1, 5, 2, 1, 1, 1, 2, 3, 4, 1, 1, 2, 3, 4, 3, 4, 5, 1, 2, 1, 1, 1, 2, 3, 4, 5, 1, 1, 2, 3, 4, 4, 1, 2, 1, 2, 2, 1, 1, 1, 3, 2, 3, 1, 2, 1, 1, 2, 3, 1, 4, 4, 2, 6, 1, 1, 2, 3, 1, 3, 4, 5, 1, 1, 2, 3, 3, 1, 1, 2, 3, 1, 1, 2, 2, 4, 1, 1, 2, 3, 4, 5, 6, 1, 1, 2, 3, 4, 1, 1, 2, 3, 4, 1, 1, 2, 3, 4, 1, 1, 2, 2, 4, 1, 1, 5, 2, 2, 3, 2, 2, 3, 1, 2, 2, 3, 1, 5, 6, 1, 2, 2, 3, 1, 1, 4, 2, 1, 1, 2, 3, 1, 2, 3, 3, 1, 5, 1, 2, 4, 2, 1, 1, 1, 2, 1, 2, 2, 1, 3, 1, 1, 3, 3, 4, 5, 2, 6, 1, 1, 1, 2, 1, 1, 2, 3, 3, 4, 6, 1, 1, 2, 3, 4, 5, 1, 1, 2, 3, 2, 1, 3, 5, 1, 1, 3, 3, 2, 5, 2, 4, 2, 1, 1, 2, 3, 4, 5, 1, 1, 2];
v_of_subtree_edges = [4, 3, 3, 5, 5, 3, 3, 4, 2, 3, 6, 5, 7, 7, 4, 2, 3, 5, 5, 4, 2, 2, 4, 3, 5, 5, 6, 6, 5, 3, 4, 5, 4, 3, 3, 4, 5, 4, 6, 6, 2, 3, 2, 4, 5, 5, 3, 2, 5, 4, 5, 4, 5, 6, 6, 3, 2, 2, 4, 3, 5, 6, 6, 5, 2, 3, 4, 5, 5, 4, 5, 3, 3, 3, 4, 2, 3, 4, 4, 4, 3, 4, 2, 3, 3, 6, 3, 7, 5, 5, 7, 2, 2, 7, 7, 5, 4, 6, 6, 3, 2, 4, 4, 4, 4, 2, 5, 5, 5, 3, 3, 4, 5, 3, 2, 7, 4, 5, 6, 7, 2, 3, 4, 5, 5, 3, 2, 5, 4, 5, 5, 2, 3, 4, 5, 5, 3, 3, 4, 5, 3, 5, 6, 6, 4, 4, 4, 3, 5, 5, 4, 7, 4, 3, 6, 7, 5, 3, 5, 4, 4, 5, 5, 4, 5, 6, 3, 6, 3, 3, 6, 7, 6, 7, 2, 4, 5, 4, 2, 3, 4, 4, 3, 3, 3, 2, 4, 4, 8, 8, 4, 6, 7, 5, 7, 2, 4, 2, 3, 2, 4, 6, 7, 5, 5, 7, 2, 4, 3, 5, 6, 6, 4, 2, 3, 4, 3, 4, 4, 8, 8, 4, 6, 7, 4, 6, 7, 5, 4, 5, 3, 3, 4, 6, 6, 5, 2, 3];

triangle_perimeters = [1324, 988, 5079, 2774, 3015, 1520, 347, 1142, 1086, 896, 332, 2070, 962, 837, 1260, 1858, 1435, 1360, 1128, 992, 1490, 1292, 2092, 1208, 595, 454, 554, 336, 1283, 1213, 1147, 743, 467, 922, 923, 909, 1099, 1136, 924, 748, 582, 617, 523, 303, 577, 696, 835, 622, 553, 927, 686, 648, 818, 861, 250, 319, 658, 629, 426, 413, 317, 201, 273, 726, 847, 988, 734, 731, 794, 693, 695, 706, 622, 1002, 736, 1047, 964, 1314, 766, 915, 803, 618, 507];
dual_edge_costs = [102, 585, 435, 1504, 1043, 1372, 393, 1009, 139, 431, 504, 91, 117, 349, 358, 297, 401, 64, 608, 453, 432, 207, 323, 97, 370, 370, 283, 474, 503, 605, 381, 356, 475, 292, 403, 519, 437, 534, 515, 220, 168, 129, 157, 250, 175, 118, 127, 548, 233, 290, 285, 286, 134, 176, 169, 360, 317, 318, 178, 442, 301, 301, 246, 225, 282, 153, 139, 236, 242, 177, 113, 85, 105, 207, 307, 214, 352, 147, 261, 228, 262, 325, 340, 228, 140, 207, 329, 54, 91, 112, 281, 153, 66, 83, 116, 93, 301, 183, 194, 312, 186, 295, 159, 225, 239, 231, 242, 221, 306, 336, 169, 424, 443, 368, 133, 265, 349, 192, 205];

pe_triangle_incidence_indices = [1, 2, 1, 1, 6, 2, 8, 2, 3, 5, 3, 3, 23, 4, 5, 4, 34, 4, 12, 5, 7, 6, 9, 6, 18, 7, 28, 7, 11, 8, 10, 8, 9, 9, 20, 10, 24, 10, 11, 63, 11, 12, 29, 12, 39, 13, 30, 13, 25, 13, 32, 14, 77, 14, 22, 14, 19, 15, 19, 15, 17, 15, 78, 16, 17, 16, 18, 16, 17, 37, 18, 19, 20, 24, 20, 22, 21, 22, 21, 35, 21, 23, 23, 24, 25, 40, 25, 26, 26, 27, 26, 33, 27, 68, 27, 46, 28, 61, 28, 29, 29, 30, 30, 43, 31, 41, 31, 31, 45, 32, 57, 32, 33, 33, 47, 34, 35, 34, 74, 35, 76, 36, 51, 36, 36, 49, 37, 38, 37, 80, 38, 52, 38, 39, 40, 39, 71, 40, 70, 41, 56, 41, 42, 42, 58, 42, 64, 43, 60, 43, 44, 44, 45, 44, 55, 45, 59, 46, 47, 46, 48, 47, 65, 48, 49, 48, 53, 49, 67, 50, 81, 50, 54, 50, 69, 51, 53, 51, 52, 52, 54, 53, 54, 55, 56, 55, 57, 56, 58, 57, 58, 59, 60, 59, 62, 60, 61, 61, 63, 62, 63, 62, 64, 65, 64, 66, 65, 67, 66, 67, 66, 68, 70, 68, 69, 69, 73, 70, 72, 71, 72, 71, 75, 72, 73, 73, 82, 74, 76, 74, 75, 75, 83, 76, 77, 77, 78, 78, 79, 79, 83, 79, 80, 80, 81, 81, 82, 82, 83];
pe_triangle_incidence_start = [1, 3, 4, 6, 8, 9, 11, 12, 14, 16, 18, 20, 22, 24, 26, 28, 30, 32, 34, 36, 38, 39, 41, 42, 44, 46, 48, 50, 52, 54, 56, 58, 60, 62, 64, 66, 68, 69, 71, 73, 75, 77, 79, 81, 83, 85, 87, 89, 91, 93, 95, 97, 99, 101, 103, 105, 107, 108, 110, 112, 114, 116, 118, 120, 122, 124, 125, 127, 129, 131, 133, 134, 136, 138, 140, 142, 144, 146, 148, 150, 152, 154, 156, 158, 160, 162, 164, 166, 168, 170, 172, 174, 176, 178, 180, 182, 184, 186, 188, 190, 192, 194, 196, 198, 200, 202, 203, 205, 207, 209, 211, 212, 214, 216, 218, 220, 222, 224, 226, 228, 230, 232, 234, 236, 238, 240, 242, 244, 246, 248];
pe_triangle_incidence_length = [2, 1, 2, 2, 1, 2, 1, 2, 2, 2, 2, 2, 2, 2, 2, 2, 2, 2, 2, 2, 1, 2, 1, 2, 2, 2, 2, 2, 2, 2, 2, 2, 2, 2, 2, 2, 1, 2, 2, 2, 2, 2, 2, 2, 2, 2, 2, 2, 2, 2, 2, 2, 2, 2, 2, 2, 1, 2, 2, 2, 2, 2, 2, 2, 2, 1, 2, 2, 2, 2, 1, 2, 2, 2, 2, 2, 2, 2, 2, 2, 2, 2, 2, 2, 2, 2, 2, 2, 2, 2, 2, 2, 2, 2, 2, 2, 2, 2, 2, 2, 2, 2, 2, 2, 2, 1, 2, 2, 2, 2, 1, 2, 2, 2, 2, 2, 2, 2, 2, 2, 2, 2, 2, 2, 2, 2, 2, 2, 2, 2];
